p cnf 19 9
a 1 0
e 2 0
a 3 4 5 0
e 6 7 0
a 8 0
e 9 0
a 10 0
e 11 12 0
a 13 0
e 14 0
a 15 16 0
e 17 0
a 18 0
e 19 0
-3 18 -16 12 9 0
6 4 -12 0
-3 -5 19 0
1 -8 -15 -12 -14 0
16 3 -15 19 13 0
19 -2 1 -12 7 0
-4 17 0
-5 7 -13 -10 12 0
17 18 -4 8 19 0
